; benchmark generated from python API
(set-info :status unknown)
(declare-fun x_months () Int)
(declare-fun x_beta () Int)
(assert
 (<= (- 1200) x_months))
(assert
 (>= 1199 x_months))
(assert
 (let ((?x2609 (mod x_months 48)))
 (let ((?x211 ((as const (Array Int Int)) 0)))
 (let ((?x213 (store ?x211 0 31)))
 (let ((?x216 (store ?x213 1 30)))
 (let ((?x218 (store ?x216 2 31)))
 (let ((?x220 (store ?x218 3 30)))
 (let ((?x222 (store ?x220 4 31)))
 (let ((?x224 (store ?x222 5 31)))
 (let ((?x226 (store ?x224 6 30)))
 (let ((?x228 (store ?x226 7 31)))
 (let ((?x230 (store ?x228 8 30)))
 (let ((?x232 (store ?x230 9 31)))
 (let ((?x234 (store ?x232 10 31)))
 (let ((?x237 (store ?x234 11 28)))
 (let ((?x239 (store ?x237 12 31)))
 (let ((?x241 (store ?x239 13 30)))
 (let ((?x243 (store ?x241 14 31)))
 (let ((?x245 (store ?x243 15 30)))
 (let ((?x247 (store ?x245 16 31)))
 (let ((?x249 (store ?x247 17 31)))
 (let ((?x251 (store ?x249 18 30)))
 (let ((?x253 (store ?x251 19 31)))
 (let ((?x255 (store ?x253 20 30)))
 (let ((?x257 (store ?x255 21 31)))
 (let ((?x259 (store ?x257 22 31)))
 (let ((?x261 (store ?x259 23 28)))
 (let ((?x263 (store ?x261 24 31)))
 (let ((?x265 (store ?x263 25 30)))
 (let ((?x267 (store ?x265 26 31)))
 (let ((?x269 (store ?x267 27 30)))
 (let ((?x270 (store ?x269 28 31)))
 (let ((?x272 (store ?x270 29 31)))
 (let ((?x273 (store ?x272 30 30)))
 (let ((?x274 (store ?x273 31 31)))
 (let ((?x276 (store ?x274 32 30)))
 (let ((?x278 (store ?x276 33 31)))
 (let ((?x280 (store ?x278 34 31)))
 (let ((?x282 (store ?x280 35 28)))
 (let ((?x284 (store ?x282 36 31)))
 (let ((?x286 (store ?x284 37 30)))
 (let ((?x288 (store ?x286 38 31)))
 (let ((?x290 (store ?x288 39 30)))
 (let ((?x292 (store ?x290 40 31)))
 (let ((?x294 (store ?x292 41 31)))
 (let ((?x296 (store ?x294 42 30)))
 (let ((?x298 (store ?x296 43 31)))
 (let ((?x300 (store ?x298 44 30)))
 (let ((?x302 (store ?x300 45 31)))
 (let ((?x304 (store ?x302 46 31)))
 (let ((?x306 (store ?x304 47 29)))
 (let ((?x3411 (select ?x306 ?x2609)))
 (let ((?x3863 (ite (or (= 22802 (+ x_months 24003)) (= 25202 (+ x_months 24003))) 28 ?x3411)))
 (let (($x650 (<= 0 x_beta)))
 (and $x650 (< x_beta ?x3863))))))))))))))))))))))))))))))))))))))))))))))))))))))))
(assert
 (let (($x650 (<= 0 x_beta)))
 (or (> x_months (- (+ (* 2019 12) 12) 24003)) (and (= x_months (- (+ (* 2019 12) 12) 24003)) $x650))))
(assert
 (let (($x3404 (and (= x_months (- (+ (* 2020 12) 2) 24003)) (>= 28 x_beta))))
 (or (< x_months (- (+ (* 2020 12) 2) 24003)) $x3404)))
(assert
 (let ((?x3321 (+ x_months 0)))
(let ((?x3723 (mod ?x3321 48)))
(let ((?x4330 (ite (> 22803 (+ ?x3321 24003)) 1 (ite (<= 25203 (+ ?x3321 24003)) (- 1) 0))))
(let ((?x211 ((as const (Array Int Int)) 0)))
(let ((?x213 (store ?x211 0 31)))
(let ((?x216 (store ?x213 1 30)))
(let ((?x218 (store ?x216 2 31)))
(let ((?x220 (store ?x218 3 30)))
(let ((?x222 (store ?x220 4 31)))
(let ((?x224 (store ?x222 5 31)))
(let ((?x226 (store ?x224 6 30)))
(let ((?x228 (store ?x226 7 31)))
(let ((?x230 (store ?x228 8 30)))
(let ((?x232 (store ?x230 9 31)))
(let ((?x234 (store ?x232 10 31)))
(let ((?x237 (store ?x234 11 28)))
(let ((?x239 (store ?x237 12 31)))
(let ((?x241 (store ?x239 13 30)))
(let ((?x243 (store ?x241 14 31)))
(let ((?x245 (store ?x243 15 30)))
(let ((?x247 (store ?x245 16 31)))
(let ((?x249 (store ?x247 17 31)))
(let ((?x251 (store ?x249 18 30)))
(let ((?x253 (store ?x251 19 31)))
(let ((?x255 (store ?x253 20 30)))
(let ((?x257 (store ?x255 21 31)))
(let ((?x259 (store ?x257 22 31)))
(let ((?x261 (store ?x259 23 28)))
(let ((?x263 (store ?x261 24 31)))
(let ((?x265 (store ?x263 25 30)))
(let ((?x267 (store ?x265 26 31)))
(let ((?x269 (store ?x267 27 30)))
(let ((?x270 (store ?x269 28 31)))
(let ((?x272 (store ?x270 29 31)))
(let ((?x273 (store ?x272 30 30)))
(let ((?x274 (store ?x273 31 31)))
(let ((?x276 (store ?x274 32 30)))
(let ((?x278 (store ?x276 33 31)))
(let ((?x280 (store ?x278 34 31)))
(let ((?x282 (store ?x280 35 28)))
(let ((?x284 (store ?x282 36 31)))
(let ((?x286 (store ?x284 37 30)))
(let ((?x288 (store ?x286 38 31)))
(let ((?x290 (store ?x288 39 30)))
(let ((?x292 (store ?x290 40 31)))
(let ((?x294 (store ?x292 41 31)))
(let ((?x296 (store ?x294 42 30)))
(let ((?x298 (store ?x296 43 31)))
(let ((?x300 (store ?x298 44 30)))
(let ((?x302 (store ?x300 45 31)))
(let ((?x304 (store ?x302 46 31)))
(let ((?x306 (store ?x304 47 29)))
(let ((?x2589 (ite (or (= 22802 (+ ?x3321 24003)) (= 25202 (+ ?x3321 24003))) 28 (select ?x306 ?x3723))))
(let ((?x2245 (- ?x2589 1)))
(let (($x1610 (> 0 x_beta)))
(let ((?x312 (store (store (store (store ?x211 0 0) 1 31) 2 61) 3 92)))
(let ((?x320 (store (store (store (store ?x312 4 122) 5 153) 6 184) 7 214)))
(let ((?x328 (store (store (store (store ?x320 8 245) 9 275) 10 306) 11 337)))
(let ((?x336 (store (store (store (store ?x328 12 365) 13 396) 14 426) 15 457)))
(let ((?x344 (store (store (store (store ?x336 16 487) 17 518) 18 549) 19 579)))
(let ((?x352 (store (store (store (store ?x344 20 610) 21 640) 22 671) 23 702)))
(let ((?x360 (store (store (store (store ?x352 24 730) 25 761) 26 791) 27 822)))
(let ((?x368 (store (store (store (store ?x360 28 852) 29 883) 30 914) 31 944)))
(let ((?x376 (store (store (store (store ?x368 32 975) 33 1005) 34 1036) 35 1067)))
(let ((?x384 (store (store (store (store ?x376 36 1095) 37 1126) 38 1156) 39 1187)))
(let ((?x392 (store (store (store (store ?x384 40 1217) 41 1248) 42 1279) 43 1309)))
(let ((?x400 (store (store (store (store ?x392 44 1340) 45 1370) 46 1401) 47 1432)))
(let ((?x4100 (+ (select ?x400 ?x3723) (ite $x1610 0 (ite (> x_beta ?x2245) ?x2245 x_beta)))))
(let ((?x1517 (+ (+ ?x4100 ?x4330) 366)))
(let ((?x1604 (+ ?x3321 (* (div ?x1517 1461) 48))))
(let ((?x4755 (+ (+ ?x1604 (- 1 ?x3723)) 24003)))
(let ((?x2304 (select ?x400 1)))
(let ((?x4151 (mod ?x1517 1461)))
(let (($x1457 (>= ?x4151 (+ ?x2304 (ite (> 22803 ?x4755) 1 (ite (<= 25203 ?x4755) (- 1) 0))))))
(let ((?x4181 (ite (> 22803 (+ (+ ?x1604 (- 2 ?x3723)) 24003)) 1 (ite (<= 25203 (+ (+ ?x1604 (- 2 ?x3723)) 24003)) (- 1) 0))))
(let ((?x2089 (select ?x400 2)))
(let ((?x3023 (ite (> 22803 (+ (+ ?x1604 (- 3 ?x3723)) 24003)) 1 (ite (<= 25203 (+ (+ ?x1604 (- 3 ?x3723)) 24003)) (- 1) 0))))
(let ((?x2075 (select ?x400 3)))
(let ((?x733 (ite (>= ?x4151 (+ ?x2075 ?x3023)) 3 (ite (>= ?x4151 (+ ?x2089 ?x4181)) 2 (ite $x1457 1 0)))))
(let ((?x4759 (ite (> 22803 (+ (+ ?x1604 (- 4 ?x3723)) 24003)) 1 (ite (<= 25203 (+ (+ ?x1604 (- 4 ?x3723)) 24003)) (- 1) 0))))
(let ((?x2197 (select ?x400 4)))
(let ((?x4316 (ite (> 22803 (+ (+ ?x1604 (- 5 ?x3723)) 24003)) 1 (ite (<= 25203 (+ (+ ?x1604 (- 5 ?x3723)) 24003)) (- 1) 0))))
(let ((?x753 (select ?x400 5)))
(let ((?x4762 (ite (>= ?x4151 (+ ?x753 ?x4316)) 5 (ite (>= ?x4151 (+ ?x2197 ?x4759)) 4 ?x733))))
(let ((?x2400 (ite (> 22803 (+ (+ ?x1604 (- 6 ?x3723)) 24003)) 1 (ite (<= 25203 (+ (+ ?x1604 (- 6 ?x3723)) 24003)) (- 1) 0))))
(let ((?x1510 (select ?x400 6)))
(let ((?x4538 (ite (> 22803 (+ (+ ?x1604 (- 7 ?x3723)) 24003)) 1 (ite (<= 25203 (+ (+ ?x1604 (- 7 ?x3723)) 24003)) (- 1) 0))))
(let ((?x4263 (select ?x400 7)))
(let ((?x4717 (ite (>= ?x4151 (+ ?x4263 ?x4538)) 7 (ite (>= ?x4151 (+ ?x1510 ?x2400)) 6 ?x4762))))
(let ((?x4767 (ite (> 22803 (+ (+ ?x1604 (- 8 ?x3723)) 24003)) 1 (ite (<= 25203 (+ (+ ?x1604 (- 8 ?x3723)) 24003)) (- 1) 0))))
(let ((?x1905 (select ?x400 8)))
(let ((?x4386 (ite (> 22803 (+ (+ ?x1604 (- 9 ?x3723)) 24003)) 1 (ite (<= 25203 (+ (+ ?x1604 (- 9 ?x3723)) 24003)) (- 1) 0))))
(let ((?x1839 (select ?x400 9)))
(let ((?x3644 (ite (>= ?x4151 (+ ?x1839 ?x4386)) 9 (ite (>= ?x4151 (+ ?x1905 ?x4767)) 8 ?x4717))))
(let ((?x4148 (ite (> 22803 (+ (+ ?x1604 (- 10 ?x3723)) 24003)) 1 (ite (<= 25203 (+ (+ ?x1604 (- 10 ?x3723)) 24003)) (- 1) 0))))
(let ((?x3328 (select ?x400 10)))
(let ((?x587 (ite (> 22803 (+ (+ ?x1604 (- 11 ?x3723)) 24003)) 1 (ite (<= 25203 (+ (+ ?x1604 (- 11 ?x3723)) 24003)) (- 1) 0))))
(let ((?x3943 (select ?x400 11)))
(let ((?x4632 (ite (>= ?x4151 (+ ?x3943 ?x587)) 11 (ite (>= ?x4151 (+ ?x3328 ?x4148)) 10 ?x3644))))
(let ((?x3882 (ite (> 22803 (+ (+ ?x1604 (- 12 ?x3723)) 24003)) 1 (ite (<= 25203 (+ (+ ?x1604 (- 12 ?x3723)) 24003)) (- 1) 0))))
(let ((?x3634 (select ?x400 12)))
(let ((?x1661 (ite (> 22803 (+ (+ ?x1604 (- 13 ?x3723)) 24003)) 1 (ite (<= 25203 (+ (+ ?x1604 (- 13 ?x3723)) 24003)) (- 1) 0))))
(let ((?x1414 (select ?x400 13)))
(let ((?x3205 (ite (>= ?x4151 (+ ?x1414 ?x1661)) 13 (ite (>= ?x4151 (+ ?x3634 ?x3882)) 12 ?x4632))))
(let ((?x4175 (ite (> 22803 (+ (+ ?x1604 (- 14 ?x3723)) 24003)) 1 (ite (<= 25203 (+ (+ ?x1604 (- 14 ?x3723)) 24003)) (- 1) 0))))
(let ((?x857 (select ?x400 14)))
(let ((?x4520 (ite (> 22803 (+ (+ ?x1604 (- 15 ?x3723)) 24003)) 1 (ite (<= 25203 (+ (+ ?x1604 (- 15 ?x3723)) 24003)) (- 1) 0))))
(let ((?x1560 (select ?x400 15)))
(let ((?x2855 (ite (>= ?x4151 (+ ?x1560 ?x4520)) 15 (ite (>= ?x4151 (+ ?x857 ?x4175)) 14 ?x3205))))
(let ((?x771 (ite (> 22803 (+ (+ ?x1604 (- 16 ?x3723)) 24003)) 1 (ite (<= 25203 (+ (+ ?x1604 (- 16 ?x3723)) 24003)) (- 1) 0))))
(let ((?x4222 (select ?x400 16)))
(let ((?x1030 (ite (> 22803 (+ (+ ?x1604 (- 17 ?x3723)) 24003)) 1 (ite (<= 25203 (+ (+ ?x1604 (- 17 ?x3723)) 24003)) (- 1) 0))))
(let ((?x782 (select ?x400 17)))
(let ((?x3766 (ite (>= ?x4151 (+ ?x782 ?x1030)) 17 (ite (>= ?x4151 (+ ?x4222 ?x771)) 16 ?x2855))))
(let ((?x1185 (ite (> 22803 (+ (+ ?x1604 (- 18 ?x3723)) 24003)) 1 (ite (<= 25203 (+ (+ ?x1604 (- 18 ?x3723)) 24003)) (- 1) 0))))
(let ((?x2610 (select ?x400 18)))
(let ((?x2637 (ite (> 22803 (+ (+ ?x1604 (- 19 ?x3723)) 24003)) 1 (ite (<= 25203 (+ (+ ?x1604 (- 19 ?x3723)) 24003)) (- 1) 0))))
(let ((?x631 (select ?x400 19)))
(let ((?x2306 (ite (>= ?x4151 (+ ?x631 ?x2637)) 19 (ite (>= ?x4151 (+ ?x2610 ?x1185)) 18 ?x3766))))
(let ((?x731 (ite (> 22803 (+ (+ ?x1604 (- 20 ?x3723)) 24003)) 1 (ite (<= 25203 (+ (+ ?x1604 (- 20 ?x3723)) 24003)) (- 1) 0))))
(let ((?x3278 (select ?x400 20)))
(let ((?x681 (ite (> 22803 (+ (+ ?x1604 (- 21 ?x3723)) 24003)) 1 (ite (<= 25203 (+ (+ ?x1604 (- 21 ?x3723)) 24003)) (- 1) 0))))
(let ((?x2463 (select ?x400 21)))
(let ((?x2734 (ite (>= ?x4151 (+ ?x2463 ?x681)) 21 (ite (>= ?x4151 (+ ?x3278 ?x731)) 20 ?x2306))))
(let ((?x2056 (ite (> 22803 (+ (+ ?x1604 (- 22 ?x3723)) 24003)) 1 (ite (<= 25203 (+ (+ ?x1604 (- 22 ?x3723)) 24003)) (- 1) 0))))
(let ((?x4596 (select ?x400 22)))
(let ((?x2238 (ite (> 22803 (+ (+ ?x1604 (- 23 ?x3723)) 24003)) 1 (ite (<= 25203 (+ (+ ?x1604 (- 23 ?x3723)) 24003)) (- 1) 0))))
(let ((?x1369 (select ?x400 23)))
(let ((?x2632 (ite (>= ?x4151 (+ ?x1369 ?x2238)) 23 (ite (>= ?x4151 (+ ?x4596 ?x2056)) 22 ?x2734))))
(let ((?x640 (ite (> 22803 (+ (+ ?x1604 (- 24 ?x3723)) 24003)) 1 (ite (<= 25203 (+ (+ ?x1604 (- 24 ?x3723)) 24003)) (- 1) 0))))
(let ((?x4318 (select ?x400 24)))
(let ((?x5296 (ite (> 22803 (+ (+ ?x1604 (- 25 ?x3723)) 24003)) 1 (ite (<= 25203 (+ (+ ?x1604 (- 25 ?x3723)) 24003)) (- 1) 0))))
(let ((?x4521 (select ?x400 25)))
(let ((?x5301 (ite (>= ?x4151 (+ ?x4521 ?x5296)) 25 (ite (>= ?x4151 (+ ?x4318 ?x640)) 24 ?x2632))))
(let ((?x4150 (ite (> 22803 (+ (+ ?x1604 (- 26 ?x3723)) 24003)) 1 (ite (<= 25203 (+ (+ ?x1604 (- 26 ?x3723)) 24003)) (- 1) 0))))
(let ((?x1675 (select ?x400 26)))
(let ((?x4850 (ite (> 22803 (+ (+ ?x1604 (- 27 ?x3723)) 24003)) 1 (ite (<= 25203 (+ (+ ?x1604 (- 27 ?x3723)) 24003)) (- 1) 0))))
(let ((?x2831 (select ?x400 27)))
(let ((?x5421 (ite (>= ?x4151 (+ ?x2831 ?x4850)) 27 (ite (>= ?x4151 (+ ?x1675 ?x4150)) 26 ?x5301))))
(let ((?x5374 (ite (> 22803 (+ (+ ?x1604 (- 28 ?x3723)) 24003)) 1 (ite (<= 25203 (+ (+ ?x1604 (- 28 ?x3723)) 24003)) (- 1) 0))))
(let ((?x3201 (select ?x400 28)))
(let ((?x5384 (ite (> 22803 (+ (+ ?x1604 (- 29 ?x3723)) 24003)) 1 (ite (<= 25203 (+ (+ ?x1604 (- 29 ?x3723)) 24003)) (- 1) 0))))
(let ((?x4563 (select ?x400 29)))
(let ((?x5382 (ite (>= ?x4151 (+ ?x4563 ?x5384)) 29 (ite (>= ?x4151 (+ ?x3201 ?x5374)) 28 ?x5421))))
(let ((?x1648 (ite (> 22803 (+ (+ ?x1604 (- 30 ?x3723)) 24003)) 1 (ite (<= 25203 (+ (+ ?x1604 (- 30 ?x3723)) 24003)) (- 1) 0))))
(let ((?x2054 (select ?x400 30)))
(let ((?x2397 (ite (> 22803 (+ (+ ?x1604 (- 31 ?x3723)) 24003)) 1 (ite (<= 25203 (+ (+ ?x1604 (- 31 ?x3723)) 24003)) (- 1) 0))))
(let ((?x4378 (select ?x400 31)))
(let ((?x5201 (ite (>= ?x4151 (+ ?x4378 ?x2397)) 31 (ite (>= ?x4151 (+ ?x2054 ?x1648)) 30 ?x5382))))
(let ((?x4854 (ite (> 22803 (+ (+ ?x1604 (- 32 ?x3723)) 24003)) 1 (ite (<= 25203 (+ (+ ?x1604 (- 32 ?x3723)) 24003)) (- 1) 0))))
(let ((?x2824 (select ?x400 32)))
(let ((?x5867 (ite (> 22803 (+ (+ ?x1604 (- 33 ?x3723)) 24003)) 1 (ite (<= 25203 (+ (+ ?x1604 (- 33 ?x3723)) 24003)) (- 1) 0))))
(let ((?x3976 (select ?x400 33)))
(let ((?x5869 (ite (>= ?x4151 (+ ?x3976 ?x5867)) 33 (ite (>= ?x4151 (+ ?x2824 ?x4854)) 32 ?x5201))))
(let ((?x4073 (ite (> 22803 (+ (+ ?x1604 (- 34 ?x3723)) 24003)) 1 (ite (<= 25203 (+ (+ ?x1604 (- 34 ?x3723)) 24003)) (- 1) 0))))
(let ((?x3546 (select ?x400 34)))
(let ((?x680 (ite (> 22803 (+ (+ ?x1604 (- 35 ?x3723)) 24003)) 1 (ite (<= 25203 (+ (+ ?x1604 (- 35 ?x3723)) 24003)) (- 1) 0))))
(let ((?x4696 (select ?x400 35)))
(let ((?x5884 (ite (>= ?x4151 (+ ?x4696 ?x680)) 35 (ite (>= ?x4151 (+ ?x3546 ?x4073)) 34 ?x5869))))
(let ((?x5889 (ite (> 22803 (+ (+ ?x1604 (- 36 ?x3723)) 24003)) 1 (ite (<= 25203 (+ (+ ?x1604 (- 36 ?x3723)) 24003)) (- 1) 0))))
(let ((?x2642 (select ?x400 36)))
(let ((?x5897 (ite (> 22803 (+ (+ ?x1604 (- 37 ?x3723)) 24003)) 1 (ite (<= 25203 (+ (+ ?x1604 (- 37 ?x3723)) 24003)) (- 1) 0))))
(let ((?x1394 (select ?x400 37)))
(let ((?x5899 (ite (>= ?x4151 (+ ?x1394 ?x5897)) 37 (ite (>= ?x4151 (+ ?x2642 ?x5889)) 36 ?x5884))))
(let ((?x2104 (ite (> 22803 (+ (+ ?x1604 (- 38 ?x3723)) 24003)) 1 (ite (<= 25203 (+ (+ ?x1604 (- 38 ?x3723)) 24003)) (- 1) 0))))
(let ((?x4195 (select ?x400 38)))
(let ((?x1519 (ite (> 22803 (+ (+ ?x1604 (- 39 ?x3723)) 24003)) 1 (ite (<= 25203 (+ (+ ?x1604 (- 39 ?x3723)) 24003)) (- 1) 0))))
(let ((?x4498 (select ?x400 39)))
(let ((?x5914 (ite (>= ?x4151 (+ ?x4498 ?x1519)) 39 (ite (>= ?x4151 (+ ?x4195 ?x2104)) 38 ?x5899))))
(let ((?x5919 (ite (> 22803 (+ (+ ?x1604 (- 40 ?x3723)) 24003)) 1 (ite (<= 25203 (+ (+ ?x1604 (- 40 ?x3723)) 24003)) (- 1) 0))))
(let ((?x2985 (select ?x400 40)))
(let ((?x5927 (ite (> 22803 (+ (+ ?x1604 (- 41 ?x3723)) 24003)) 1 (ite (<= 25203 (+ (+ ?x1604 (- 41 ?x3723)) 24003)) (- 1) 0))))
(let ((?x2165 (select ?x400 41)))
(let ((?x5929 (ite (>= ?x4151 (+ ?x2165 ?x5927)) 41 (ite (>= ?x4151 (+ ?x2985 ?x5919)) 40 ?x5914))))
(let ((?x4091 (ite (> 22803 (+ (+ ?x1604 (- 42 ?x3723)) 24003)) 1 (ite (<= 25203 (+ (+ ?x1604 (- 42 ?x3723)) 24003)) (- 1) 0))))
(let ((?x4064 (select ?x400 42)))
(let ((?x4332 (ite (> 22803 (+ (+ ?x1604 (- 43 ?x3723)) 24003)) 1 (ite (<= 25203 (+ (+ ?x1604 (- 43 ?x3723)) 24003)) (- 1) 0))))
(let ((?x3163 (select ?x400 43)))
(let ((?x5944 (ite (>= ?x4151 (+ ?x3163 ?x4332)) 43 (ite (>= ?x4151 (+ ?x4064 ?x4091)) 42 ?x5929))))
(let ((?x5949 (ite (> 22803 (+ (+ ?x1604 (- 44 ?x3723)) 24003)) 1 (ite (<= 25203 (+ (+ ?x1604 (- 44 ?x3723)) 24003)) (- 1) 0))))
(let ((?x837 (select ?x400 44)))
(let ((?x5957 (ite (> 22803 (+ (+ ?x1604 (- 45 ?x3723)) 24003)) 1 (ite (<= 25203 (+ (+ ?x1604 (- 45 ?x3723)) 24003)) (- 1) 0))))
(let ((?x686 (select ?x400 45)))
(let ((?x5959 (ite (>= ?x4151 (+ ?x686 ?x5957)) 45 (ite (>= ?x4151 (+ ?x837 ?x5949)) 44 ?x5944))))
(let ((?x1126 (ite (> 22803 (+ (+ ?x1604 (- 46 ?x3723)) 24003)) 1 (ite (<= 25203 (+ (+ ?x1604 (- 46 ?x3723)) 24003)) (- 1) 0))))
(let ((?x1178 (select ?x400 46)))
(let ((?x4589 (ite (> 22803 (+ (+ ?x1604 (- 47 ?x3723)) 24003)) 1 (ite (<= 25203 (+ (+ ?x1604 (- 47 ?x3723)) 24003)) (- 1) 0))))
(let ((?x4559 (select ?x400 47)))
(let ((?x5974 (ite (>= ?x4151 (+ ?x4559 ?x4589)) 47 (ite (>= ?x4151 (+ ?x1178 ?x1126)) 46 ?x5959))))
(let ((?x5976 (+ ?x1604 (- ?x5974 ?x3723))))
(let ((?x1988 (+ ?x5976 24003)))
(let ((?x5981 (+ (select ?x400 ?x5974) (ite (> 22803 ?x1988) 1 (ite (<= 25203 ?x1988) (- 1) 0)))))
(let ((?x5982 (- ?x4151 ?x5981)))
(let ((?x5985 (ite (or (= 22802 ?x1988) (= 25202 ?x1988)) 28 (select ?x306 ?x5974))))
(let ((?x1042 (+ x_months 12)))
(let ((?x3713 (mod ?x1042 48)))
(let ((?x618 (ite (> 22803 (+ ?x1042 24003)) 1 (ite (<= 25203 (+ ?x1042 24003)) (- 1) 0))))
(let ((?x1513 (ite (or (= 22802 (+ ?x1042 24003)) (= 25202 (+ ?x1042 24003))) 28 (select ?x306 ?x3713))))
(let ((?x1697 (- ?x1513 1)))
(let ((?x2094 (+ (select ?x400 ?x3713) (ite $x1610 0 (ite (> x_beta ?x1697) ?x1697 x_beta)))))
(let ((?x3728 (+ (+ ?x2094 ?x618) 0)))
(let ((?x2402 (+ ?x1042 (* (div ?x3728 1461) 48))))
(let ((?x2454 (+ (+ ?x2402 (- 1 ?x3713)) 24003)))
(let ((?x3318 (mod ?x3728 1461)))
(let (($x1722 (>= ?x3318 (+ ?x2304 (ite (> 22803 ?x2454) 1 (ite (<= 25203 ?x2454) (- 1) 0))))))
(let ((?x2002 (ite (> 22803 (+ (+ ?x2402 (- 2 ?x3713)) 24003)) 1 (ite (<= 25203 (+ (+ ?x2402 (- 2 ?x3713)) 24003)) (- 1) 0))))
(let ((?x1951 (ite (> 22803 (+ (+ ?x2402 (- 3 ?x3713)) 24003)) 1 (ite (<= 25203 (+ (+ ?x2402 (- 3 ?x3713)) 24003)) (- 1) 0))))
(let ((?x3827 (ite (>= ?x3318 (+ ?x2075 ?x1951)) 3 (ite (>= ?x3318 (+ ?x2089 ?x2002)) 2 (ite $x1722 1 0)))))
(let ((?x624 (ite (> 22803 (+ (+ ?x2402 (- 4 ?x3713)) 24003)) 1 (ite (<= 25203 (+ (+ ?x2402 (- 4 ?x3713)) 24003)) (- 1) 0))))
(let ((?x2956 (ite (> 22803 (+ (+ ?x2402 (- 5 ?x3713)) 24003)) 1 (ite (<= 25203 (+ (+ ?x2402 (- 5 ?x3713)) 24003)) (- 1) 0))))
(let ((?x2384 (ite (>= ?x3318 (+ ?x753 ?x2956)) 5 (ite (>= ?x3318 (+ ?x2197 ?x624)) 4 ?x3827))))
(let ((?x2090 (ite (> 22803 (+ (+ ?x2402 (- 6 ?x3713)) 24003)) 1 (ite (<= 25203 (+ (+ ?x2402 (- 6 ?x3713)) 24003)) (- 1) 0))))
(let ((?x3520 (ite (> 22803 (+ (+ ?x2402 (- 7 ?x3713)) 24003)) 1 (ite (<= 25203 (+ (+ ?x2402 (- 7 ?x3713)) 24003)) (- 1) 0))))
(let ((?x2888 (ite (>= ?x3318 (+ ?x4263 ?x3520)) 7 (ite (>= ?x3318 (+ ?x1510 ?x2090)) 6 ?x2384))))
(let ((?x1216 (ite (> 22803 (+ (+ ?x2402 (- 8 ?x3713)) 24003)) 1 (ite (<= 25203 (+ (+ ?x2402 (- 8 ?x3713)) 24003)) (- 1) 0))))
(let ((?x4500 (ite (> 22803 (+ (+ ?x2402 (- 9 ?x3713)) 24003)) 1 (ite (<= 25203 (+ (+ ?x2402 (- 9 ?x3713)) 24003)) (- 1) 0))))
(let ((?x2618 (ite (>= ?x3318 (+ ?x1839 ?x4500)) 9 (ite (>= ?x3318 (+ ?x1905 ?x1216)) 8 ?x2888))))
(let ((?x600 (ite (> 22803 (+ (+ ?x2402 (- 10 ?x3713)) 24003)) 1 (ite (<= 25203 (+ (+ ?x2402 (- 10 ?x3713)) 24003)) (- 1) 0))))
(let ((?x1082 (ite (> 22803 (+ (+ ?x2402 (- 11 ?x3713)) 24003)) 1 (ite (<= 25203 (+ (+ ?x2402 (- 11 ?x3713)) 24003)) (- 1) 0))))
(let ((?x3216 (ite (>= ?x3318 (+ ?x3943 ?x1082)) 11 (ite (>= ?x3318 (+ ?x3328 ?x600)) 10 ?x2618))))
(let ((?x2662 (ite (> 22803 (+ (+ ?x2402 (- 12 ?x3713)) 24003)) 1 (ite (<= 25203 (+ (+ ?x2402 (- 12 ?x3713)) 24003)) (- 1) 0))))
(let ((?x1079 (ite (> 22803 (+ (+ ?x2402 (- 13 ?x3713)) 24003)) 1 (ite (<= 25203 (+ (+ ?x2402 (- 13 ?x3713)) 24003)) (- 1) 0))))
(let ((?x2991 (ite (>= ?x3318 (+ ?x1414 ?x1079)) 13 (ite (>= ?x3318 (+ ?x3634 ?x2662)) 12 ?x3216))))
(let ((?x4126 (ite (> 22803 (+ (+ ?x2402 (- 14 ?x3713)) 24003)) 1 (ite (<= 25203 (+ (+ ?x2402 (- 14 ?x3713)) 24003)) (- 1) 0))))
(let ((?x3280 (ite (> 22803 (+ (+ ?x2402 (- 15 ?x3713)) 24003)) 1 (ite (<= 25203 (+ (+ ?x2402 (- 15 ?x3713)) 24003)) (- 1) 0))))
(let ((?x3204 (ite (>= ?x3318 (+ ?x1560 ?x3280)) 15 (ite (>= ?x3318 (+ ?x857 ?x4126)) 14 ?x2991))))
(let ((?x2181 (ite (> 22803 (+ (+ ?x2402 (- 16 ?x3713)) 24003)) 1 (ite (<= 25203 (+ (+ ?x2402 (- 16 ?x3713)) 24003)) (- 1) 0))))
(let ((?x3164 (ite (> 22803 (+ (+ ?x2402 (- 17 ?x3713)) 24003)) 1 (ite (<= 25203 (+ (+ ?x2402 (- 17 ?x3713)) 24003)) (- 1) 0))))
(let ((?x1436 (ite (>= ?x3318 (+ ?x782 ?x3164)) 17 (ite (>= ?x3318 (+ ?x4222 ?x2181)) 16 ?x3204))))
(let ((?x3073 (ite (> 22803 (+ (+ ?x2402 (- 18 ?x3713)) 24003)) 1 (ite (<= 25203 (+ (+ ?x2402 (- 18 ?x3713)) 24003)) (- 1) 0))))
(let ((?x2788 (ite (> 22803 (+ (+ ?x2402 (- 19 ?x3713)) 24003)) 1 (ite (<= 25203 (+ (+ ?x2402 (- 19 ?x3713)) 24003)) (- 1) 0))))
(let ((?x1269 (ite (>= ?x3318 (+ ?x631 ?x2788)) 19 (ite (>= ?x3318 (+ ?x2610 ?x3073)) 18 ?x1436))))
(let ((?x4738 (ite (> 22803 (+ (+ ?x2402 (- 20 ?x3713)) 24003)) 1 (ite (<= 25203 (+ (+ ?x2402 (- 20 ?x3713)) 24003)) (- 1) 0))))
(let ((?x1530 (ite (> 22803 (+ (+ ?x2402 (- 21 ?x3713)) 24003)) 1 (ite (<= 25203 (+ (+ ?x2402 (- 21 ?x3713)) 24003)) (- 1) 0))))
(let ((?x4322 (ite (>= ?x3318 (+ ?x2463 ?x1530)) 21 (ite (>= ?x3318 (+ ?x3278 ?x4738)) 20 ?x1269))))
(let ((?x4686 (ite (> 22803 (+ (+ ?x2402 (- 22 ?x3713)) 24003)) 1 (ite (<= 25203 (+ (+ ?x2402 (- 22 ?x3713)) 24003)) (- 1) 0))))
(let ((?x1159 (ite (> 22803 (+ (+ ?x2402 (- 23 ?x3713)) 24003)) 1 (ite (<= 25203 (+ (+ ?x2402 (- 23 ?x3713)) 24003)) (- 1) 0))))
(let ((?x2485 (ite (>= ?x3318 (+ ?x1369 ?x1159)) 23 (ite (>= ?x3318 (+ ?x4596 ?x4686)) 22 ?x4322))))
(let ((?x1297 (ite (> 22803 (+ (+ ?x2402 (- 24 ?x3713)) 24003)) 1 (ite (<= 25203 (+ (+ ?x2402 (- 24 ?x3713)) 24003)) (- 1) 0))))
(let ((?x1107 (ite (> 22803 (+ (+ ?x2402 (- 25 ?x3713)) 24003)) 1 (ite (<= 25203 (+ (+ ?x2402 (- 25 ?x3713)) 24003)) (- 1) 0))))
(let ((?x2781 (ite (>= ?x3318 (+ ?x4521 ?x1107)) 25 (ite (>= ?x3318 (+ ?x4318 ?x1297)) 24 ?x2485))))
(let ((?x4495 (ite (> 22803 (+ (+ ?x2402 (- 26 ?x3713)) 24003)) 1 (ite (<= 25203 (+ (+ ?x2402 (- 26 ?x3713)) 24003)) (- 1) 0))))
(let ((?x789 (ite (> 22803 (+ (+ ?x2402 (- 27 ?x3713)) 24003)) 1 (ite (<= 25203 (+ (+ ?x2402 (- 27 ?x3713)) 24003)) (- 1) 0))))
(let ((?x3869 (ite (>= ?x3318 (+ ?x2831 ?x789)) 27 (ite (>= ?x3318 (+ ?x1675 ?x4495)) 26 ?x2781))))
(let ((?x2817 (ite (> 22803 (+ (+ ?x2402 (- 28 ?x3713)) 24003)) 1 (ite (<= 25203 (+ (+ ?x2402 (- 28 ?x3713)) 24003)) (- 1) 0))))
(let ((?x700 (ite (> 22803 (+ (+ ?x2402 (- 29 ?x3713)) 24003)) 1 (ite (<= 25203 (+ (+ ?x2402 (- 29 ?x3713)) 24003)) (- 1) 0))))
(let ((?x4609 (ite (>= ?x3318 (+ ?x4563 ?x700)) 29 (ite (>= ?x3318 (+ ?x3201 ?x2817)) 28 ?x3869))))
(let ((?x4735 (ite (> 22803 (+ (+ ?x2402 (- 30 ?x3713)) 24003)) 1 (ite (<= 25203 (+ (+ ?x2402 (- 30 ?x3713)) 24003)) (- 1) 0))))
(let ((?x2973 (ite (> 22803 (+ (+ ?x2402 (- 31 ?x3713)) 24003)) 1 (ite (<= 25203 (+ (+ ?x2402 (- 31 ?x3713)) 24003)) (- 1) 0))))
(let ((?x2021 (ite (>= ?x3318 (+ ?x4378 ?x2973)) 31 (ite (>= ?x3318 (+ ?x2054 ?x4735)) 30 ?x4609))))
(let ((?x2182 (ite (> 22803 (+ (+ ?x2402 (- 32 ?x3713)) 24003)) 1 (ite (<= 25203 (+ (+ ?x2402 (- 32 ?x3713)) 24003)) (- 1) 0))))
(let ((?x1454 (ite (> 22803 (+ (+ ?x2402 (- 33 ?x3713)) 24003)) 1 (ite (<= 25203 (+ (+ ?x2402 (- 33 ?x3713)) 24003)) (- 1) 0))))
(let ((?x3887 (ite (>= ?x3318 (+ ?x3976 ?x1454)) 33 (ite (>= ?x3318 (+ ?x2824 ?x2182)) 32 ?x2021))))
(let ((?x3493 (ite (> 22803 (+ (+ ?x2402 (- 34 ?x3713)) 24003)) 1 (ite (<= 25203 (+ (+ ?x2402 (- 34 ?x3713)) 24003)) (- 1) 0))))
(let ((?x2408 (ite (> 22803 (+ (+ ?x2402 (- 35 ?x3713)) 24003)) 1 (ite (<= 25203 (+ (+ ?x2402 (- 35 ?x3713)) 24003)) (- 1) 0))))
(let ((?x1468 (ite (>= ?x3318 (+ ?x4696 ?x2408)) 35 (ite (>= ?x3318 (+ ?x3546 ?x3493)) 34 ?x3887))))
(let ((?x1476 (ite (> 22803 (+ (+ ?x2402 (- 36 ?x3713)) 24003)) 1 (ite (<= 25203 (+ (+ ?x2402 (- 36 ?x3713)) 24003)) (- 1) 0))))
(let ((?x4476 (ite (> 22803 (+ (+ ?x2402 (- 37 ?x3713)) 24003)) 1 (ite (<= 25203 (+ (+ ?x2402 (- 37 ?x3713)) 24003)) (- 1) 0))))
(let ((?x1898 (ite (>= ?x3318 (+ ?x1394 ?x4476)) 37 (ite (>= ?x3318 (+ ?x2642 ?x1476)) 36 ?x1468))))
(let ((?x4575 (ite (> 22803 (+ (+ ?x2402 (- 38 ?x3713)) 24003)) 1 (ite (<= 25203 (+ (+ ?x2402 (- 38 ?x3713)) 24003)) (- 1) 0))))
(let ((?x1810 (ite (> 22803 (+ (+ ?x2402 (- 39 ?x3713)) 24003)) 1 (ite (<= 25203 (+ (+ ?x2402 (- 39 ?x3713)) 24003)) (- 1) 0))))
(let ((?x1060 (ite (>= ?x3318 (+ ?x4498 ?x1810)) 39 (ite (>= ?x3318 (+ ?x4195 ?x4575)) 38 ?x1898))))
(let ((?x1736 (ite (> 22803 (+ (+ ?x2402 (- 40 ?x3713)) 24003)) 1 (ite (<= 25203 (+ (+ ?x2402 (- 40 ?x3713)) 24003)) (- 1) 0))))
(let ((?x4213 (ite (> 22803 (+ (+ ?x2402 (- 41 ?x3713)) 24003)) 1 (ite (<= 25203 (+ (+ ?x2402 (- 41 ?x3713)) 24003)) (- 1) 0))))
(let ((?x4560 (ite (>= ?x3318 (+ ?x2165 ?x4213)) 41 (ite (>= ?x3318 (+ ?x2985 ?x1736)) 40 ?x1060))))
(let ((?x1613 (ite (> 22803 (+ (+ ?x2402 (- 42 ?x3713)) 24003)) 1 (ite (<= 25203 (+ (+ ?x2402 (- 42 ?x3713)) 24003)) (- 1) 0))))
(let ((?x4670 (ite (> 22803 (+ (+ ?x2402 (- 43 ?x3713)) 24003)) 1 (ite (<= 25203 (+ (+ ?x2402 (- 43 ?x3713)) 24003)) (- 1) 0))))
(let ((?x2493 (ite (>= ?x3318 (+ ?x3163 ?x4670)) 43 (ite (>= ?x3318 (+ ?x4064 ?x1613)) 42 ?x4560))))
(let ((?x1911 (ite (> 22803 (+ (+ ?x2402 (- 44 ?x3713)) 24003)) 1 (ite (<= 25203 (+ (+ ?x2402 (- 44 ?x3713)) 24003)) (- 1) 0))))
(let ((?x2107 (ite (> 22803 (+ (+ ?x2402 (- 45 ?x3713)) 24003)) 1 (ite (<= 25203 (+ (+ ?x2402 (- 45 ?x3713)) 24003)) (- 1) 0))))
(let ((?x3331 (ite (>= ?x3318 (+ ?x686 ?x2107)) 45 (ite (>= ?x3318 (+ ?x837 ?x1911)) 44 ?x2493))))
(let ((?x3043 (ite (> 22803 (+ (+ ?x2402 (- 46 ?x3713)) 24003)) 1 (ite (<= 25203 (+ (+ ?x2402 (- 46 ?x3713)) 24003)) (- 1) 0))))
(let ((?x1670 (ite (> 22803 (+ (+ ?x2402 (- 47 ?x3713)) 24003)) 1 (ite (<= 25203 (+ (+ ?x2402 (- 47 ?x3713)) 24003)) (- 1) 0))))
(let ((?x4066 (ite (>= ?x3318 (+ ?x4559 ?x1670)) 47 (ite (>= ?x3318 (+ ?x1178 ?x3043)) 46 ?x3331))))
(let ((?x2895 (+ ?x2402 (- ?x4066 ?x3713))))
(let ((?x3382 (+ ?x2895 24003)))
(let ((?x3883 (+ (select ?x400 ?x4066) (ite (> 22803 ?x3382) 1 (ite (<= 25203 ?x3382) (- 1) 0)))))
(let ((?x4753 (- ?x3318 ?x3883)))
(let ((?x1251 (ite (or (= 22802 ?x3382) (= 25202 ?x3382)) 28 (select ?x306 ?x4066))))
(let (($x4515 (= (ite (= 1 (ite (>= ?x4753 ?x1251) 1 0)) (- ?x4753 ?x1251) ?x4753) (ite (= 1 (ite (>= ?x5982 ?x5985) 1 0)) (- ?x5982 ?x5985) ?x5982))))
(let (($x4204 (= (+ ?x2895 (ite (>= ?x4753 ?x1251) 1 0)) (+ ?x5976 (ite (>= ?x5982 ?x5985) 1 0)))))
(not (and $x4204 $x4515))))))))))))))))))))))))))))))))))))))))))))))))))))))))))))))))))))))))))))))))))))))))))))))))))))))))))))))))))))))))))))))))))))))))))))))))))))))))))))))))))))))))))))))))))))))))))))))))))))))))))))))))))))))))))))))))))))))))))))))))))))))))))))))))))))))))))))))))))))))))))))
(check-sat)
